\* Paris_Visit_-_Max._number_of_sites_(duration) *\
Maximize
Max._number_of_sites: AC + AT + BS + CA + CN + CP + JT + ML + MO + PC + SC
 + TE + TM
Subject To
Max._duration: 1.5 AC + AT + 2 BS + 2 CA + 2 CN + 2.5 CP + 1.5 JT + 3 ML
 + 2 MO + 0.75 PC + 1.5 SC + 4.5 TE + 2 TM <= 12
Binaries
AC
AT
BS
CA
CN
CP
JT
ML
MO
PC
SC
TE
TM
End
